c File: flat30_3_0.col
c
c SOURCE: Joseph Culberson (joe@cs.ualberta.ca)
c DESCRIPTION: Quasi-random coloring problem
c              generated with flatness = 0
c                             probability = 0.200
c                             known coloring = 3
c                             random seed = 241927
c              Creation Date:  Fri Nov 29 22:02:30 1996
c Maximum degree = 6 Minimum degree = 2
c
c cnf created by edge2cnf
p cnf 90 300
-1 -2 0
-1 -3 0
-2 -3 0
1 2 3 0
-4 -5 0
-4 -6 0
-5 -6 0
4 5 6 0
-7 -8 0
-7 -9 0
-8 -9 0
7 8 9 0
-10 -11 0
-10 -12 0
-11 -12 0
10 11 12 0
-13 -14 0
-13 -15 0
-14 -15 0
13 14 15 0
-16 -17 0
-16 -18 0
-17 -18 0
16 17 18 0
-19 -20 0
-19 -21 0
-20 -21 0
19 20 21 0
-22 -23 0
-22 -24 0
-23 -24 0
22 23 24 0
-25 -26 0
-25 -27 0
-26 -27 0
25 26 27 0
-28 -29 0
-28 -30 0
-29 -30 0
28 29 30 0
-31 -32 0
-31 -33 0
-32 -33 0
31 32 33 0
-34 -35 0
-34 -36 0
-35 -36 0
34 35 36 0
-37 -38 0
-37 -39 0
-38 -39 0
37 38 39 0
-40 -41 0
-40 -42 0
-41 -42 0
40 41 42 0
-43 -44 0
-43 -45 0
-44 -45 0
43 44 45 0
-46 -47 0
-46 -48 0
-47 -48 0
46 47 48 0
-49 -50 0
-49 -51 0
-50 -51 0
49 50 51 0
-52 -53 0
-52 -54 0
-53 -54 0
52 53 54 0
-55 -56 0
-55 -57 0
-56 -57 0
55 56 57 0
-58 -59 0
-58 -60 0
-59 -60 0
58 59 60 0
-61 -62 0
-61 -63 0
-62 -63 0
61 62 63 0
-64 -65 0
-64 -66 0
-65 -66 0
64 65 66 0
-67 -68 0
-67 -69 0
-68 -69 0
67 68 69 0
-70 -71 0
-70 -72 0
-71 -72 0
70 71 72 0
-73 -74 0
-73 -75 0
-74 -75 0
73 74 75 0
-76 -77 0
-76 -78 0
-77 -78 0
76 77 78 0
-79 -80 0
-79 -81 0
-80 -81 0
79 80 81 0
-82 -83 0
-82 -84 0
-83 -84 0
82 83 84 0
-85 -86 0
-85 -87 0
-86 -87 0
85 86 87 0
-88 -89 0
-88 -90 0
-89 -90 0
88 89 90 0
-43 -1 0
-44 -2 0
-45 -3 0
-70 -1 0
-71 -2 0
-72 -3 0
-31 -4 0
-32 -5 0
-33 -6 0
-73 -4 0
-74 -5 0
-75 -6 0
-31 -7 0
-32 -8 0
-33 -9 0
-49 -7 0
-50 -8 0
-51 -9 0
-67 -7 0
-68 -8 0
-69 -9 0
-85 -7 0
-86 -8 0
-87 -9 0
-88 -7 0
-89 -8 0
-90 -9 0
-37 -10 0
-38 -11 0
-39 -12 0
-52 -10 0
-53 -11 0
-54 -12 0
-55 -10 0
-56 -11 0
-57 -12 0
-61 -10 0
-62 -11 0
-63 -12 0
-64 -10 0
-65 -11 0
-66 -12 0
-79 -10 0
-80 -11 0
-81 -12 0
-31 -13 0
-32 -14 0
-33 -15 0
-40 -13 0
-41 -14 0
-42 -15 0
-58 -13 0
-59 -14 0
-60 -15 0
-70 -13 0
-71 -14 0
-72 -15 0
-76 -13 0
-77 -14 0
-78 -15 0
-34 -16 0
-35 -17 0
-36 -18 0
-37 -16 0
-38 -17 0
-39 -18 0
-64 -16 0
-65 -17 0
-66 -18 0
-85 -16 0
-86 -17 0
-87 -18 0
-88 -16 0
-89 -17 0
-90 -18 0
-46 -19 0
-47 -20 0
-48 -21 0
-52 -19 0
-53 -20 0
-54 -21 0
-67 -19 0
-68 -20 0
-69 -21 0
-76 -19 0
-77 -20 0
-78 -21 0
-85 -19 0
-86 -20 0
-87 -21 0
-37 -22 0
-38 -23 0
-39 -24 0
-61 -22 0
-62 -23 0
-63 -24 0
-43 -25 0
-44 -26 0
-45 -27 0
-52 -25 0
-53 -26 0
-54 -27 0
-55 -25 0
-56 -26 0
-57 -27 0
-70 -25 0
-71 -26 0
-72 -27 0
-34 -28 0
-35 -29 0
-36 -30 0
-40 -28 0
-41 -29 0
-42 -30 0
-67 -28 0
-68 -29 0
-69 -30 0
-82 -28 0
-83 -29 0
-84 -30 0
-76 -31 0
-77 -32 0
-78 -33 0
-88 -31 0
-89 -32 0
-90 -33 0
-67 -34 0
-68 -35 0
-69 -36 0
-70 -34 0
-71 -35 0
-72 -36 0
-88 -34 0
-89 -35 0
-90 -36 0
-61 -37 0
-62 -38 0
-63 -39 0
-73 -40 0
-74 -41 0
-75 -42 0
-64 -43 0
-65 -44 0
-66 -45 0
-70 -43 0
-71 -44 0
-72 -45 0
-79 -43 0
-80 -44 0
-81 -45 0
-82 -46 0
-83 -47 0
-84 -48 0
-85 -46 0
-86 -47 0
-87 -48 0
-82 -49 0
-83 -50 0
-84 -51 0
-73 -52 0
-74 -53 0
-75 -54 0
-76 -52 0
-77 -53 0
-78 -54 0
-79 -52 0
-80 -53 0
-81 -54 0
-64 -55 0
-65 -56 0
-66 -57 0
-82 -58 0
-83 -59 0
-84 -60 0
-85 -58 0
-86 -59 0
-87 -60 0
-88 -58 0
-89 -59 0
-90 -60 0
